107322
0,9,28,63,72,44,45,53,79,61,69,13,66,75,25,35,65,19,70,20,4,21,43,81,74,37,15,26,6,32,10,39,31,73,57,8,76,16,55,50,71,80,59,46,48,33,56,42,2,11,22,54,41,24,14,68,77,60,5,1,29,34,78,27,7,67,58,52,82,62,38,40,51,3,49,64,30,23,18,47,17,36,12,0